NAME: test1986
TYPE: TSP
DIMENSION: 11
EDGE_WEIGHT_TYPE: EUC_2D
NODE_COORD_SECTION
1 3.2483663876827884 63.60148381255738
2 94.47239213449838 39.40071798944661
3 10.967672974903998 43.96550979964097
4 81.83414055106412 76.67631014665855
5 21.738628548457207 9.917273133697302
6 94.11684773572017 53.1596892470835
7 28.077526110054308 40.94516767188382
8 21.593906412041953 86.20199942188437
9 81.24135584217716 71.72778932721943
10 6.345274758682695 10.724958130404804
11 21.210369911403316 50.82464639761323
EOF
